LAMMPS (4 Jul 2026)
OMP_NUM_THREADS environment is not set. Defaulting to 1 thread.
  using 1 OpenMP thread(s) per MPI task
# ============================================================
# Anorthite production trajectory
# Matsui 1998 potential
#
# Material:
#   Ca8Al16Si16O64 = 8 CaAl2Si2O8
#
# Runtime parameters supplied by PowerShell:
#   seed   = thermal velocity seed
#   runid  = unique trajectory identifier
#   sx     = final x cell scale
#   sy     = final y cell scale
#   sz     = final z cell scale
#
# Example:
# lmp -var seed 10001 -var runid test001 \
#     -var sx 0.99 -var sy 0.99 -var sz 0.99 \
#     -in in.anorthite_production
# ============================================================

clear
OMP_NUM_THREADS environment is not set. Defaulting to 1 thread.
  using 1 OpenMP thread(s) per MPI task

# ------------------------------------------------------------
# Runtime parameters
# ------------------------------------------------------------

variable seed  index 492845
variable runid index test
variable sx    index 0.99
variable sy    index 0.99
variable sz    index 0.99

units metal
atom_style charge
boundary p p p

# ------------------------------------------------------------
# Read correctly remapped anorthite structure
#
# Type mapping:
#   1 = Ca
#   2 = Mg
#   3 = Al
#   4 = Si
#   5 = O
# ------------------------------------------------------------

read_data data.Anorthite.matsui
Reading data file ...
  triclinic box = (0 0 0) to (8.1730003 12.865884 12.708601) with tilt (-0.28320619 -6.1901889 -0.90568125)
WARNING: Triclinic box skew is large. LAMMPS will run inefficiently. (src/domain.cpp:221)
  1 by 1 by 1 MPI processor grid
  reading atoms ...
  104 atoms
  read_data CPU = 0.004 seconds

# ------------------------------------------------------------
# Masses
# ------------------------------------------------------------

mass 1 40.08
mass 2 24.31
mass 3 26.98
mass 4 28.09
mass 5 16.00

# ------------------------------------------------------------
# Charges
# ------------------------------------------------------------

set type 1 charge 0.9450
Setting atom values ...
  8 settings made for charge
set type 2 charge 0.9450
Setting atom values ...
  0 settings made for charge
set type 3 charge 1.4175
Setting atom values ...
  16 settings made for charge
set type 4 charge 1.8900
Setting atom values ...
  16 settings made for charge
set type 5 charge -0.9450
Setting atom values ...
  64 settings made for charge

# ------------------------------------------------------------
# Matsui 1998 potential
# ------------------------------------------------------------

pair_style born/coul/long 12.0

pair_coeff 1 1 0.003469071552 0.08  2.344  20.9873025     0.0
pair_coeff 1 2 0.003469071552 0.08  2.066  13.548469725   0.0
pair_coeff 1 3 0.0032088911856 0.074 1.9572 17.17227729    0.0
pair_coeff 1 4 0.0027318938472 0.063 1.8924 22.99275585    0.0
pair_coeff 1 5 0.0077186842032 0.178 2.9935 42.259099545   0.0

pair_coeff 2 2 0.003469071552 0.08  1.788  8.74628990025  0.0
pair_coeff 2 3 0.0032088911856 0.074 1.6792 11.0856590061  0.0
pair_coeff 2 4 0.0027318938472 0.063 1.6144 14.8431012765  0.0
pair_coeff 2 5 0.0077186842032 0.178 2.7155 27.2805964841  0.0

pair_coeff 3 3 0.0029487108192 0.068 1.5704 14.0507388848  0.0
pair_coeff 3 4 0.0024717134808 0.057 1.5056 18.8131837866  0.0
pair_coeff 3 5 0.0074585038368 0.172 2.6067 34.5773343388  0.0

pair_coeff 4 4 0.0019947161424 0.046 1.4408 25.189841409  0.0
pair_coeff 4 5 0.0069815064984 0.161 2.5419 46.2971912793  0.0

pair_coeff 5 5 0.0119682968544 0.276 3.643 85.0910446616  0.0

# ------------------------------------------------------------
# Long-range electrostatics
# ------------------------------------------------------------

kspace_style pppm 1.0e-5

neighbor 1.0 bin
neigh_modify delay 10 every 2 check yes

# ============================================================
# STEP 1: Fixed-cell force relaxation
# ============================================================

thermo 100

thermo_style custom     step     pe     etotal     enthalpy     vol     press     density

min_style hftn

minimize 1.0e-10 1.0e-8 100000 100000
Switching to 'neigh_modify every 1 delay 0 check yes' setting during minimization
PPPM initialization ...
  using 12-bit tables for long-range coulomb
  G vector (1/distance) = 0.28188029
  grid = 10 15 20
  stencil order = 5
  estimated absolute RMS force accuracy = 4.7646969e-05
  estimated relative force accuracy = 3.3088989e-06
  using double precision FFTW3
  3d grid and FFT values/proc = 10098 3000
Generated 0 of 10 mixed pair_coeff terms from geometric mixing rule
Neighbor list info ...
  update: every = 1 steps, delay = 0 steps, check = yes
  max neighbors/atom: 2000, page size: 100000
  master list distance cutoff = 13
  ghost atom cutoff = 13
  binsize = 6.5, bins = 3 3 2
  1 neighbor lists, perpetual/occasional/extra = 1 0 0
  (1) pair born/coul/long, perpetual
      attributes: half, newton on
      pair build: half/bin/atomonly/newton/tri
      stencil: half/bin/3d/tri
      bin: standard
Per MPI rank memory allocation (min/avg/max) = 7.178 | 7.178 | 7.178 Mbytes
   Step         PotEng         TotEng        Enthalpy        Volume         Press         Density    
         0  -979.29152     -979.29152     -933.88653      1336.3459      54437.107      2.7657219    
        44  -1016.5028     -1016.5028     -1023.3406      1336.3459     -8197.9702      2.7657219    
Loop time of 1.84553 on 1 procs for 43 steps with 104 atoms

98.2% CPU use with 1 MPI tasks x 1 OpenMP threads

Minimization stats:
  Stopping criterion = energy tolerance
  Energy initial, next-to-last, final = 
     -979.291519057735  -1016.50277103265  -1016.50278467552
  Force two-norm initial, final = 68.12423 0.019569584
  Force max component initial, final = 9.5325358 0.0037647638
  Final line search alpha, max atom move = 0 0
  Iterations, force evaluations = 43 834

MPI task timing breakdown:
Section |  min time  |  avg time  |  max time  |%varavg| %total
---------------------------------------------------------------
Pair    | 1.637      | 1.637      | 1.637      |   0.0 | 88.70
Kspace  | 0.18573    | 0.18573    | 0.18573    |   0.0 | 10.06
Neigh   | 0          | 0          | 0          |   0.0 |  0.00
Comm    | 0.016943   | 0.016943   | 0.016943   |   0.0 |  0.92
Output  | 0          | 0          | 0          |   0.0 |  0.00
Modify  | 0          | 0          | 0          |   0.0 |  0.00
Other   |            | 0.005818   |            |       |  0.32

Nlocal:            104 ave         104 max         104 min
Histogram: 1 0 0 0 0 0 0 0 0 0
Nghost:           4240 ave        4240 max        4240 min
Histogram: 1 0 0 0 0 0 0 0 0 0
Neighs:          37216 ave       37216 max       37216 min
Histogram: 1 0 0 0 0 0 0 0 0 0

Total # of neighbors = 37216
Ave neighs/atom = 357.84615
Neighbor list builds = 0
Dangerous builds = 0

# ============================================================
# STEP 2: Independent 300 K initialization
# ============================================================

reset_timestep 0
timestep 0.001

velocity all create 300.0 ${seed}     mom yes     rot yes     dist gaussian
velocity all create 300.0 10001     mom yes     rot yes     dist gaussian

# ============================================================
# STEP 3: 300 K equilibration
#
# 5000 steps = 5 ps
# ============================================================

fix equil all nvt temp 300.0 300.0 0.1

thermo 100

thermo_style custom     step     time     temp     pe     ke     etotal     enthalpy     vol     press     density

run 5000
PPPM initialization ...
  using 12-bit tables for long-range coulomb
  G vector (1/distance) = 0.28188029
  grid = 10 15 20
  stencil order = 5
  estimated absolute RMS force accuracy = 4.7646969e-05
  estimated relative force accuracy = 3.3088989e-06
  using double precision FFTW3
  3d grid and FFT values/proc = 10098 3000
Generated 0 of 10 mixed pair_coeff terms from geometric mixing rule
Per MPI rank memory allocation (min/avg/max) = 4.553 | 4.553 | 4.553 Mbytes
   Step          Time           Temp          PotEng         KinEng         TotEng        Enthalpy        Volume         Press         Density    
         0   0              300           -1016.5028      3.9941385     -1012.5086     -1016.6837      1336.3459     -5005.5259      2.7657219    
       100   0.1            188.33306     -1014.4336      2.5074277     -1011.9262     -1015.4568      1336.3459     -4232.8624      2.7657219    
       200   0.2            198.20768     -1013.6301      2.6388965     -1010.9912     -1017.5352      1336.3459     -7845.8461      2.7657219    
       300   0.3            251.31434     -1013.1856      3.3459475     -1009.8397     -1005.9428      1336.3459      4672.0766      2.7657219    
       400   0.4            260.52174     -1012.1989      3.468533      -1008.7304     -1012.1833      1336.3459     -4139.7851      2.7657219    
       500   0.5            326.14178     -1012.2171      4.3421847     -1007.8749     -1012.3254      1336.3459     -5335.8549      2.7657219    
       600   0.6            312.6023      -1011.7439      4.1619229     -1007.582      -1004.4459      1336.3459      3759.9597      2.7657219    
       700   0.7            320.82287     -1012.3945      4.2713699     -1008.1231     -1007.9139      1336.3459      250.81801      2.7657219    
       800   0.8            275.88792     -1012.4527      3.6731152     -1008.7796     -1018.0661      1336.3459     -11133.867      2.7657219    
       900   0.9            254.94089     -1012.458       3.3942307     -1009.0638     -1008.1097      1336.3459      1143.8787      2.7657219    
      1000   1              278.43517     -1012.5264      3.7070287     -1008.8194     -1010.3018      1336.3459     -1777.2703      2.7657219    
      1100   1.1            298.5207      -1012.2149      3.9744434     -1008.2405     -1008.1908      1336.3459      59.556389      2.7657219    
      1200   1.2            326.00137     -1012.296       4.3403153     -1007.9557     -1003.8382      1336.3459      4936.5196      2.7657219    
      1300   1.3            296.31978     -1012.2503      3.9451408     -1008.3051     -1007.6014      1336.3459      843.67679      2.7657219    
      1400   1.4            264.15905     -1012.5045      3.5169594     -1008.9876     -1010.7538      1336.3459     -2117.6055      2.7657219    
      1500   1.5            266.48038     -1012.6365      3.5478651     -1009.0886     -1016.8662      1336.3459     -9324.6659      2.7657219    
      1600   1.6            294.55641     -1012.7369      3.9216637     -1008.8152     -1011.6613      1336.3459     -3412.2306      2.7657219    
      1700   1.7            320.27191     -1012.857       4.2640346     -1008.5929     -1015.0861      1336.3459     -7784.8348      2.7657219    
      1800   1.8            328.70372     -1012.8133      4.376294      -1008.437      -1018.313       1336.3459     -11840.497      2.7657219    
      1900   1.9            328.41085     -1012.6641      4.3723948     -1008.2917     -1008.2594      1336.3459      38.766167      2.7657219    
      2000   2              298.186       -1012.3084      3.9699872     -1008.3384     -1018.0418      1336.3459     -11633.63       2.7657219    
      2100   2.1            304.33562     -1012.6035      4.0518621     -1008.5516     -1010.2549      1336.3459     -2042.069       2.7657219    
      2200   2.2            293.59721     -1012.6318      3.908893      -1008.7229     -1005.729       1336.3459      3589.3975      2.7657219    
      2300   2.3            298.03694     -1012.6929      3.9680027     -1008.7249     -1008.9585      1336.3459     -280.05728      2.7657219    
      2400   2.4            280.00287     -1012.1942      3.7279008     -1008.4663     -1003.5382      1336.3459      5908.3931      2.7657219    
      2500   2.5            297.17931     -1011.8647      3.9565844     -1007.9081     -1015.5677      1336.3459     -9183.2197      2.7657219    
      2600   2.6            347.21296     -1012.4852      4.6227222     -1007.8625     -1021.7607      1336.3459     -16662.977      2.7657219    
      2700   2.7            282.20587     -1012.4762      3.7572311     -1008.719      -1008.9442      1336.3459     -270.05491      2.7657219    
      2800   2.8            290.40521     -1012.7912      3.8663954     -1008.9248     -1010.7801      1336.3459     -2224.3467      2.7657219    
      2900   2.9            265.25057     -1012.2284      3.5314917     -1008.6969     -1003.9467      1336.3459      5695.1466      2.7657219    
      3000   3              292.80915     -1012.1491      3.898401      -1008.2507     -1009.8083      1336.3459     -1867.4693      2.7657219    
      3100   3.1            354.77698     -1012.6864      4.723428      -1007.963      -1012.4128      1336.3459     -5334.9865      2.7657219    
      3200   3.2            260.527       -1012.0388      3.4686031     -1008.5702     -1018.2494      1336.3459     -11604.692      2.7657219    
      3300   3.3            254.82032     -1012.736       3.3926255     -1009.3434     -1012.2232      1336.3459     -3452.7436      2.7657219    
      3400   3.4            271.56062     -1012.6169      3.6155024     -1009.0014     -1008.9756      1336.3459      30.821692      2.7657219    
      3500   3.5            308.13459     -1012.4825      4.1024408     -1008.3801     -1012.356       1336.3459     -4766.8647      2.7657219    
      3600   3.6            326.56229     -1012.4518      4.3477833     -1008.104      -1009.0238      1336.3459     -1102.8288      2.7657219    
      3700   3.7            296.80925     -1012.3183      3.9516576     -1008.3666     -1004.4345      1336.3459      4714.3118      2.7657219    
      3800   3.8            281.89759     -1012.6896      3.7531268     -1008.9365     -1010.4407      1336.3459     -1803.4912      2.7657219    
      3900   3.9            258.46429     -1012.8786      3.4411405     -1009.4374     -1020.0261      1336.3459     -12694.949      2.7657219    
      4000   4              252.80685     -1013.042       3.3658186     -1009.6762     -1011.2188      1336.3459     -1849.5316      2.7657219    
      4100   4.1            266.07156     -1012.4893      3.5424222     -1008.9469     -1016.2847      1336.3459     -8797.4395      2.7657219    
      4200   4.2            302.40906     -1012.4107      4.0262122     -1008.3845     -1009.68        1336.3459     -1553.1606      2.7657219    
      4300   4.3            308.95064     -1012.2293      4.1133055     -1008.116      -1015.2905      1336.3459     -8601.7057      2.7657219    
      4400   4.4            323.56761     -1012.4767      4.3079128     -1008.1688     -1003.613       1336.3459      5462.0215      2.7657219    
      4500   4.5            299.45912     -1012.7379      3.9869373     -1008.7509     -1022.5285      1336.3459     -16518.258      2.7657219    
      4600   4.6            295.47287     -1013.101       3.9338652     -1009.1671     -1018.9024      1336.3459     -11671.838      2.7657219    
      4700   4.7            279.38861     -1012.6038      3.7197227     -1008.8841     -1004.1731      1336.3459      5648.0858      2.7657219    
      4800   4.8            276.84073     -1011.947       3.6858007     -1008.2612     -1005.4173      1336.3459      3409.6206      2.7657219    
      4900   4.9            330.64489     -1012.6197      4.4021383     -1008.2176     -1005.1797      1336.3459      3642.2246      2.7657219    
      5000   5              332.66034     -1012.7813      4.4289715     -1008.3523     -1010.564       1336.3459     -2651.6381      2.7657219    
Loop time of 12.0427 on 1 procs for 5000 steps with 104 atoms

Performance: 35.872 ns/day, 0.669 hours/ns, 415.190 timesteps/s, 43.180 katom-step/s
98.9% CPU use with 1 MPI tasks x 1 OpenMP threads

MPI task timing breakdown:
Section |  min time  |  avg time  |  max time  |%varavg| %total
---------------------------------------------------------------
Pair    | 10.365     | 10.365     | 10.365     |   0.0 | 86.07
Kspace  | 1.3672     | 1.3672     | 1.3672     |   0.0 | 11.35
Neigh   | 0.14839    | 0.14839    | 0.14839    |   0.0 |  1.23
Comm    | 0.11578    | 0.11578    | 0.11578    |   0.0 |  0.96
Output  | 0.01465    | 0.01465    | 0.01465    |   0.0 |  0.12
Modify  | 0.019338   | 0.019338   | 0.019338   |   0.0 |  0.16
Other   |            | 0.01206    |            |       |  0.10

Nlocal:            104 ave         104 max         104 min
Histogram: 1 0 0 0 0 0 0 0 0 0
Nghost:           4252 ave        4252 max        4252 min
Histogram: 1 0 0 0 0 0 0 0 0 0
Neighs:          37239 ave       37239 max       37239 min
Histogram: 1 0 0 0 0 0 0 0 0 0

Total # of neighbors = 37239
Ave neighs/atom = 358.06731
Neighbor list builds = 45
Dangerous builds = 0

unfix equil

# ============================================================
# STEP 4: Controlled loading
#
# 5000 steps = 5 ps
#
# sx/sy/sz specify final cell scale.
#
# Examples:
#
# Isotropic:
#   sx=0.99 sy=0.99 sz=0.99
#
# X loading:
#   sx=0.99 sy=1.00 sz=1.00
#
# Y loading:
#   sx=1.00 sy=0.99 sz=1.00
#
# Z loading:
#   sx=1.00 sy=1.00 sz=0.99
# ============================================================

reset_timestep 0

fix thermostat all nvt temp 300.0 300.0 0.1

fix compression all deform 1     x scale ${sx}     y scale ${sy}     z scale ${sz}     remap x
fix compression all deform 1     x scale 0.99     y scale ${sy}     z scale ${sz}     remap x
fix compression all deform 1     x scale 0.99     y scale 0.99     z scale ${sz}     remap x
fix compression all deform 1     x scale 0.99     y scale 0.99     z scale 0.99     remap x

# ------------------------------------------------------------
# Atomistic trajectory output
#
# Every 10 steps = 0.01 ps
#
# Includes:
#   ID
#   species
#   charge
#   unwrapped position
#   velocity
#   force
# ------------------------------------------------------------

dump trajectory all custom 10     traj_${runid}.lammpstrj     id type q xu yu zu vx vy vz fx fy fz
dump trajectory all custom 10     traj_test001.lammpstrj     id type q xu yu zu vx vy vz fx fy fz

dump_modify trajectory sort id

thermo 10

thermo_style custom     step     time     temp     pe     ke     etotal     enthalpy     vol     press     density

run 5000
PPPM initialization ...
  using 12-bit tables for long-range coulomb
  G vector (1/distance) = 0.28188029
  grid = 10 15 20
  stencil order = 5
  estimated absolute RMS force accuracy = 4.7646969e-05
  estimated relative force accuracy = 3.3088989e-06
  using double precision FFTW3
  3d grid and FFT values/proc = 10098 3000
Generated 0 of 10 mixed pair_coeff terms from geometric mixing rule
Per MPI rank memory allocation (min/avg/max) = 4.553 | 4.553 | 4.553 Mbytes
   Step          Time           Temp          PotEng         KinEng         TotEng        Enthalpy        Volume         Press         Density    
         0   0              332.66034     -1012.7813      4.4289715     -1008.3523     -1010.564       1336.3459     -2651.6381      2.7657219    
        10   0.01           307.80947     -1012.452       4.0981121     -1008.3538     -1006.2576      1336.2657      2513.3867      2.7658878    
        20   0.02           283.72422     -1012.1324      3.7774461     -1008.355      -1002.1726      1336.1856      7413.0515      2.7660538    
        30   0.03           320.12448     -1012.6256      4.2620716     -1008.3636     -1007.8171      1336.1054      655.30803      2.7662198    
        40   0.04           294.73157     -1012.2907      3.9239957     -1008.3667     -1005.4692      1336.0252      3474.6669      2.7663858    
        50   0.05           298.37659     -1012.3439      3.9725247     -1008.3713     -1005.0015      1335.945       4041.3523      2.7665518    
        60   0.06           312.97821     -1012.5493      4.1669277     -1008.3824     -1010.0829      1335.8649     -2039.5754      2.7667178    
        70   0.07           282.01428     -1012.1395      3.7546802     -1008.3848     -1013.8917      1335.7847     -6605.1623      2.7668838    
        80   0.08           328.27896     -1012.7636      4.3706388     -1008.3929     -1017.1828      1335.7046     -10543.453      2.7670499    
        90   0.09           322.89922     -1012.7083      4.299014      -1008.4093     -1019.0043      1335.6244     -12709.373      2.7672159    
       100   0.1            278.04072     -1012.1305      3.7017772     -1008.4287     -1016.4339      1335.5443     -9603.397       2.767382     
       110   0.11           301.67954     -1012.47        4.0164996     -1008.4535     -1014.6117      1335.4641     -7388.0515      2.7675481    
       120   0.12           305.38034     -1012.5419      4.0657712     -1008.4761     -1012.0577      1335.384      -4297.162       2.7677142    
       130   0.13           310.24074     -1012.634       4.1304816     -1008.5036     -1012.5956      1335.3038     -4909.8869      2.7678803    
       140   0.14           309.29164     -1012.6626      4.1178455     -1008.5448     -1013.8506      1335.2237     -6366.5921      2.7680464    
       150   0.15           285.63795     -1012.3892      3.8029251     -1008.5863     -1006.8925      1335.1436      2032.4682      2.7682125    
       160   0.16           317.75651     -1012.8699      4.230545      -1008.6394     -1006.8581      1335.0634      2137.628       2.7683787    
       170   0.17           270.16372     -1012.2975      3.5969043     -1008.7006     -1010.3809      1334.9833     -2016.5953      2.7685448    
       180   0.18           304.53821     -1012.816       4.0545593     -1008.7615     -1010.9319      1334.9032     -2604.9427      2.768711     
       190   0.19           273.23483     -1012.4667      3.6377925     -1008.8289     -1008.4103      1334.823       502.50597      2.7688772    
       200   0.2            289.58034     -1012.7615      3.8554133     -1008.9061     -1013.0921      1334.7429     -5024.7575      2.7690434    
       210   0.21           258.70342     -1012.4156      3.4443243     -1008.9713     -1012.794       1334.6628     -4588.9164      2.7692096    
       220   0.22           265.97697     -1012.5784      3.5411628     -1009.0373     -1010.7199      1334.5827     -2019.933       2.7693758    
       230   0.23           309.32008     -1013.2213      4.1182241     -1009.103      -1012.0333      1334.5026     -3517.9831      2.7695421    
       240   0.24           272.87931     -1012.7988      3.6330591     -1009.1657     -1011.0856      1334.4225     -2305.1444      2.7697083    
       250   0.25           277.84216     -1012.9327      3.6991335     -1009.2335     -1012.8205      1334.3424     -4306.9842      2.7698746    
       260   0.26           246.69928     -1012.5651      3.2845036     -1009.2806     -1014.2332      1334.2623     -5947.1092      2.7700409    
       270   0.27           257.14511     -1012.7439      3.4235773     -1009.3204     -1014.7232      1334.1822     -6488.1575      2.7702072    
       280   0.28           280.42901     -1013.0899      3.7335744     -1009.3563     -1011.4326      1334.1021     -2493.5451      2.7703735    
       290   0.29           259.8949      -1012.8393      3.4601875     -1009.3791     -1005.4266      1334.022       4746.9415      2.7705398    
       300   0.3            275.32768     -1013.0663      3.6656562     -1009.4006     -1010.0124      1333.9419     -734.82558      2.7707062    
       310   0.31           256.41491     -1012.8244      3.4138555     -1009.4106     -1011.7834      1333.8618     -2850.1176      2.7708725    
       320   0.32           262.50971     -1012.9049      3.4950004     -1009.4099     -1011.2756      1333.7818     -2241.1604      2.7710389    
       330   0.33           282.36575     -1013.164       3.7593597     -1009.4046     -1010.5489      1333.7017     -1374.6295      2.7712052    
       340   0.34           261.09682     -1012.8667      3.4761896     -1009.3906     -1007.1163      1333.6216      2732.2412      2.7713716    
       350   0.35           245.33296     -1012.6341      3.2663127     -1009.3677     -1007.9153      1333.5415      1745.0823      2.771538     
       360   0.36           275.06407     -1012.9969      3.6621466     -1009.3348     -1010.6783      1333.4615     -1614.2351      2.7717045    
       370   0.37           301.89146     -1013.3032      4.019321      -1009.2839     -1006.4704      1333.3814      3380.5596      2.7718709    
       380   0.38           298.75799     -1013.202       3.9776026     -1009.2244     -1006.415       1333.3014      3375.9651      2.7720373    
       390   0.39           283.50334     -1012.9339      3.7745053     -1009.1594     -1013.3372      1333.2213     -5020.5427      2.7722038    
       400   0.4            286.04012     -1012.8991      3.8082795     -1009.0909     -1017           1333.1412     -9505.3013      2.7723702    
       410   0.41           261.89845     -1012.5032      3.4868623     -1009.0163     -1013.0091      1333.0612     -4798.7636      2.7725367    
       420   0.42           265.43147     -1012.4633      3.5339002     -1008.9294     -1008.7964      1332.9811      159.88151      2.7727032    
       430   0.43           283.35728     -1012.6058      3.7725608     -1008.8332     -1006.4349      1332.9011      2882.8399      2.7728697    
       440   0.44           286.44636     -1012.5447      3.813688      -1008.731      -1008.6512      1332.8211      95.888321      2.7730363    
       450   0.45           268.29144     -1012.2048      3.5719772     -1008.6329     -1012.6575      1332.741      -4838.3021      2.7732028    
       460   0.46           305.70811     -1012.6109      4.0701351     -1008.5407     -1009.2609      1332.661      -865.76347      2.7733693    
       470   0.47           319.67256     -1012.7152      4.2560549     -1008.4592     -998.20486      1332.581       12328.863      2.7735359    
       480   0.48           293.59759     -1012.3051      3.9088981     -1008.3962     -997.40695      1332.5009      13213.241      2.7737025    
       490   0.49           295.65094     -1012.2908      3.936236      -1008.3545     -1008.9861      1332.4209     -759.44123      2.7738691    
       500   0.5            282.93512     -1012.0794      3.7669401     -1008.3124     -1013.4739      1332.3409     -6206.832       2.7740357    
       510   0.51           298.12524     -1012.2484      3.9691783     -1008.2792     -1012.6247      1332.2609     -5225.8322      2.7742023    
       520   0.52           321.9669      -1012.5423      4.2866013     -1008.2557     -1008.4453      1332.1808     -228.0422       2.7743689    
       530   0.53           275.00028     -1011.8939      3.6612973     -1008.2326     -1001.198       1332.1008      8460.799       2.7745356    
       540   0.54           311.58432     -1012.3631      4.1483697     -1008.2148     -1002.1364      1332.0208      7311.1732      2.7747022    
       550   0.55           291.39698     -1012.0722      3.8795996     -1008.1926     -1005.7669      1331.9408      2917.7971      2.7748689    
       560   0.56           288.06395     -1012.0124      3.8352244     -1008.1772     -1003.2481      1331.8608      5929.5017      2.7750356    
       570   0.57           354.04788     -1012.8737      4.7137209     -1008.16       -1002.2042      1331.7808      7165.0537      2.7752023    
       580   0.58           310.454       -1012.2823      4.1333209     -1008.149      -1005.7082      1331.7008      2936.4755      2.775369     
       590   0.59           323.47874     -1012.4555      4.3067296     -1008.1488     -1008.943       1331.6208     -955.49482      2.7755357    
       600   0.6            290.35267     -1012.0113      3.8656959     -1008.1456     -1007.1399      1331.5408      1210.1102      2.7757024    
       610   0.61           315.30182     -1012.3509      4.1978638     -1008.1531     -1007.4873      1331.4608      801.08746      2.7758692    
       620   0.62           343.21918     -1012.7299      4.5695498     -1008.1603     -1008.7039      1331.3809     -654.20066      2.7760359    
       630   0.63           302.25594     -1012.1966      4.0241736     -1008.1724     -1011.6792      1331.3009     -4220.2794      2.7762027    
       640   0.64           331.53248     -1012.6133      4.4139554     -1008.1993     -1015.6087      1331.2209     -8917.4815      2.7763695    
       650   0.65           281.64884     -1011.9701      3.7498149     -1008.2202     -1009.0252      1331.1409     -968.8901       2.7765363    
       660   0.66           305.26108     -1012.3103      4.0641835     -1008.2461     -1008.1356      1331.061       133.00501      2.7767031    
       670   0.67           319.02839     -1012.5218      4.2474786     -1008.2744     -1013.1808      1330.981      -5906.1387      2.7768699    
       680   0.68           292.90244     -1012.2012      3.899643      -1008.3015     -1013.3908      1330.901      -6126.5485      2.7770368    
       690   0.69           283.91712     -1012.1109      3.7800143     -1008.3309     -1014.4742      1330.8211     -7395.9761      2.7772036    
       700   0.7            317.8899      -1012.5931      4.2323209     -1008.3607     -1021.6779      1330.7411     -16033.53       2.7773705    
       710   0.71           295.9014      -1012.3337      3.9395705     -1008.3942     -1023.825       1330.6612     -18579.439      2.7775374    
       720   0.72           288.22575     -1012.2666      3.8373785     -1008.4292     -1018.8336      1330.5812     -12528.125      2.7777043    
       730   0.73           321.18654     -1012.7424      4.2762117     -1008.4662     -1013.2375      1330.5013     -5745.5946      2.7778712    
       740   0.74           285.5018      -1012.3051      3.8011124     -1008.504      -1003.878       1330.4213      5570.9355      2.7780381    
       750   0.75           296.57692     -1012.4894      3.9485643     -1008.5408     -995.6814       1330.3414      15487.043      2.7782051    
       760   0.76           318.00396     -1012.8192      4.2338395     -1008.5854     -1002.0818      1330.2614      7832.9515      2.778372     
       770   0.77           291.13422     -1012.5046      3.8761013     -1008.6285     -1011.745       1330.1815     -3753.783       2.778539     
       780   0.78           292.65422     -1012.5765      3.8963383     -1008.6802     -1007.4793      1330.1016      1446.4944      2.7787059    
       790   0.79           296.37901     -1012.6758      3.9459293     -1008.7299     -1002.8236      1330.0216      7114.8845      2.7788729    
       800   0.8            311.55867     -1012.928       4.1480283     -1008.78       -1004.3373      1329.9417      5352.069       2.7790399    
       810   0.81           267.3434      -1012.3964      3.5593553     -1008.8371     -1005.5107      1329.8618      4007.452       2.779207     
       820   0.82           247.54489     -1012.1761      3.2957619     -1008.8803     -1008.0809      1329.7819      963.09346      2.779374     
       830   0.83           279.95464     -1012.6461      3.7272587     -1008.9189     -1013.769       1329.7019     -5843.9856      2.779541     
       840   0.84           300.6803      -1012.966       4.0031959     -1008.9628     -1012.4176      1329.622      -4162.9408      2.7797081    
       850   0.85           305.96965     -1013.0798      4.0736172     -1009.0062     -1007.0162      1329.5421      2398.0133      2.7798752    
       860   0.86           300.60353     -1013.0578      4.0021738     -1009.0556     -1014.0167      1329.4622     -5978.7459      2.7800422    
       870   0.87           264.66762     -1012.6259      3.5237304     -1009.1021     -1015.9077      1329.3823     -8202.1372      2.7802093    
       880   0.88           271.21315     -1012.7545      3.6108762     -1009.1437     -1007.0508      1329.3024      2522.4703      2.7803764    
       890   0.89           259.94152     -1012.6416      3.460808      -1009.1808     -1004.8762      1329.2225      5188.6006      2.7805436    
       900   0.9            273.26816     -1012.8518      3.6382363     -1009.2136     -1009.4567      1329.1426     -293.022        2.7807107    
       910   0.91           276.41411     -1012.9215      3.6801207     -1009.2414     -1008.6486      1329.0627      714.58904      2.7808779    
       920   0.92           255.57156     -1012.666       3.4026274     -1009.2634     -1014.8991      1328.9828     -6794.2491      2.781045     
       930   0.93           280.81615     -1013.023       3.7387286     -1009.2843     -1020.6639      1328.903      -13719.773      2.7812122    
       940   0.94           277.42291     -1012.9923      3.6935517     -1009.2988     -1010.9863      1328.8231     -2034.6788      2.7813794    
       950   0.95           261.58763     -1012.7929      3.4827241     -1009.3102     -1003.3633      1328.7432      7170.6504      2.7815466    
       960   0.96           260.60311     -1012.7837      3.4696163     -1009.3141     -1005.8729      1328.6633      4149.5508      2.7817138    
       970   0.97           267.06445     -1012.8617      3.5556414     -1009.306      -1003.4057      1328.5835      7115.3182      2.781881     
       980   0.98           280.58598     -1013.028       3.7356641     -1009.2924     -1005.851       1328.5036      4150.3016      2.7820483    
       990   0.99           266.842       -1012.819       3.5526796     -1009.2663     -1011.982       1328.4237     -3275.2769      2.7822155    
      1000   1              294.33251     -1013.1441      3.9186826     -1009.2255     -1007.1904      1328.3439      2454.6211      2.7823828    
      1010   1.01           262.91808     -1012.6702      3.5004374     -1009.1698     -999.18214      1328.264       12047.26       2.7825501    
      1020   1.02           275.83334     -1012.7763      3.6723885     -1009.1039     -1006.8357      1328.1841      2736.1856      2.7827174    
      1030   1.03           302.01072     -1013.0383      4.0209088     -1009.0174     -1014.9161      1328.1043     -7116.0578      2.7828847    
      1040   1.04           293.57384     -1012.8266      3.9085819     -1008.918      -1013.9653      1328.0244     -6089.3055      2.783052     
      1050   1.05           296.73245     -1012.7724      3.950635      -1008.8218     -1015.8927      1327.9446     -8531.0944      2.7832194    
      1060   1.06           258.13461     -1012.1596      3.4367513     -1008.7228     -1008.7741      1327.8648     -61.847065      2.7833867    
      1070   1.07           304.93232     -1012.6816      4.0598063     -1008.6218     -1005.3185      1327.7849      3985.9422      2.7835541    
      1080   1.08           307.85476     -1012.6229      4.0987151     -1008.5242     -1013.4591      1327.7051     -5955.0443      2.7837215    
      1090   1.09           295.0897      -1012.363       3.9287637     -1008.4343     -1013.4344      1327.6252     -6034.1543      2.7838889    
      1100   1.1            337.48541     -1012.8544      4.4932115     -1008.3612     -1001.2641      1327.5454      8565.2692      2.7840563    
      1110   1.11           317.6603      -1012.5228      4.2292641     -1008.2935     -997.25879      1327.4656      13318.328      2.7842237    
      1120   1.12           298.76115     -1012.2214      3.9776446     -1008.2438     -1000.8884      1327.3858      8878.1164      2.7843911    
      1130   1.13           316.57468     -1012.4179      4.2148103     -1008.203      -999.21451      1327.3059      10849.964      2.7845586    
      1140   1.14           303.91562     -1012.2105      4.0462703     -1008.1642     -1002.3809      1327.2261      6981.3567      2.784726     
      1150   1.15           292.8264      -1012.0351      3.8986306     -1008.1365     -1003.8723      1327.1463      5147.8742      2.7848935    
      1160   1.16           301.29099     -1012.1167      4.0113265     -1008.1054     -995.66206      1327.0665      15022.889      2.785061     
      1170   1.17           324.61361     -1012.3967      4.321839      -1008.0749     -997.66836      1326.9867      12564.595      2.7852285    
      1180   1.18           282.70844     -1011.8161      3.7639223     -1008.0522     -1000.9332      1326.9069      8595.9158      2.785396     
      1190   1.19           293.30461     -1011.9342      3.9049974     -1008.0292     -996.89669      1326.8271      13442.789      2.7855635    
      1200   1.2            350.10919     -1012.6705      4.661282      -1008.0092     -1002.7733      1326.7473      6322.8422      2.785731     
      1210   1.21           295.94172     -1011.9329      3.9401073     -1007.9928     -1007.6119      1326.6675      459.9497       2.7858986    
      1220   1.22           324.76285     -1012.3063      4.323826      -1007.9824     -1004.1334      1326.5877      4648.6754      2.7860662    
      1230   1.23           332.26136     -1012.4036      4.4236596     -1007.98       -1009.2949      1326.5079     -1588.1511      2.7862337    
      1240   1.24           298.15092     -1011.9492      3.9695202     -1007.9796     -1011.3879      1326.4281     -4116.7379      2.7864013    
      1250   1.25           323.5331      -1012.2902      4.3074533     -1007.9828     -1003.3485      1326.3483      5598.0768      2.7865689    
      1260   1.26           314.29134     -1012.1791      4.1844105     -1007.9946     -1002.6077      1326.2686      6507.6009      2.7867366    
      1270   1.27           330.92417     -1012.4119      4.4058565     -1008.006      -1005.7942      1326.1888      2672.1413      2.7869042    
      1280   1.28           303.62571     -1012.0675      4.0424104     -1008.0251     -1003.3426      1326.109       5657.2357      2.7870718    
      1290   1.29           342.55696     -1012.6181      4.5607331     -1008.0574     -1007.9378      1326.0293      144.49792      2.7872395    
      1300   1.3            303.05309     -1012.1244      4.0347867     -1008.0896     -1005.6748      1325.9495      2917.8162      2.7874072    
      1310   1.31           335.50737     -1012.6065      4.4668764     -1008.1397     -998.26402      1325.8697      11933.699      2.7875749    
      1320   1.32           378.62275     -1013.2516      5.0409057     -1008.2107     -1001.0402      1325.79        8665.3795      2.7877426    
      1330   1.33           284.04229     -1012.0709      3.7816808     -1008.2892     -1005.2954      1325.7102      3618.214       2.7879103    
      1340   1.34           295.98465     -1012.3135      3.9406789     -1008.3728     -1010.9019      1325.6305     -3056.745       2.788078     
      1350   1.35           280.27148     -1012.1793      3.731477      -1008.4478     -1015.831       1325.5507     -8923.979       2.7882457    
      1360   1.36           291.8992      -1012.4074      3.886286      -1008.5211     -1013.4508      1325.471      -5958.8776      2.7884135    
      1370   1.37           313.23813     -1012.7684      4.1703883     -1008.598      -1007.3424      1325.3912      1517.7971      2.7885813    
      1380   1.38           289.11214     -1012.5183      3.8491797     -1008.6691     -1007.4185      1325.3115      1511.8265      2.788749     
      1390   1.39           277.40504     -1012.4269      3.6933138     -1008.7336     -1010.657       1325.2317     -2325.356       2.7889168    
      1400   1.4            290.51668     -1012.659       3.8678795     -1008.7912     -1006.6315      1325.152       2611.1408      2.7890847    
      1410   1.41           276.75853     -1012.5256      3.6847064     -1008.8409     -1001.4241      1325.0723      8967.7636      2.7892525    
      1420   1.42           268.84574     -1012.458       3.579357      -1008.8787     -1002.015       1324.9925      8299.4895      2.7894203    
      1430   1.43           286.06178     -1012.7131      3.8085679     -1008.9045     -1006.3087      1324.9128      3139.0599      2.7895882    
      1440   1.44           295.4269      -1012.8632      3.9332532     -1008.9299     -1013.5873      1324.8331     -5632.4005      2.789756     
      1450   1.45           303.48922     -1012.9949      4.0405932     -1008.9543     -1017.3173      1324.7534     -10114.308      2.7899239    
      1460   1.46           269.33623     -1012.5572      3.5858874     -1008.9713     -1010.1839      1324.6737     -1466.6076      2.7900918    
      1470   1.47           276.67263     -1012.6675      3.6835627     -1008.9839     -1005.7672      1324.594       3890.7663      2.7902597    
      1480   1.48           298.51498     -1012.9596      3.9743672     -1008.9853     -1009.8674      1324.5142     -1067.0954      2.7904276    
      1490   1.49           287.59735     -1012.8137      3.8290122     -1008.9847     -1014.2175      1324.4345     -6330.0798      2.7905955    
      1500   1.5            299.51229     -1012.9777      3.9876452     -1008.99       -1017.5202      1324.3548     -10319.619      2.7907635    
      1510   1.51           280.83793     -1012.7256      3.7390186     -1008.9866     -1014.6205      1324.2751     -6816.1181      2.7909314    
      1520   1.52           273.68134     -1012.6275      3.6437372     -1008.9838     -1009.8053      1324.1954     -994.02276      2.7910994    
      1530   1.53           267.44377     -1012.537       3.5606915     -1008.9763     -1002.0371      1324.1158      8396.4014      2.7912674    
      1540   1.54           296.76646     -1012.9093      3.9510878     -1008.9582     -1003.3907      1324.0361      6737.1053      2.7914354    
      1550   1.55           268.58321     -1012.514       3.5758618     -1008.9381     -1008.027       1323.9564      1102.5829      2.7916034    
      1560   1.56           280.21017     -1012.651       3.7306607     -1008.9203     -1004.0841      1323.8767      5852.9286      2.7917714    
      1570   1.57           336.49479     -1013.3773      4.4800226     -1008.8972     -1002.5095      1323.797       7731.0314      2.7919395    
      1580   1.58           287.53422     -1012.7062      3.8281717     -1008.8781     -1005.4011      1323.7173      4208.4433      2.7921075    
      1590   1.59           290.39346     -1012.7354      3.8662389     -1008.8692     -1005.542       1323.6377      4027.3175      2.7922756    
      1600   1.6            266.47414     -1012.3962      3.5477821     -1008.8484     -1007.1356      1323.558       2073.3686      2.7924436    
      1610   1.61           257.61802     -1012.2548      3.4298735     -1008.8249     -1011.28        1323.4783     -2972.0703      2.7926117    
      1620   1.62           297.59487     -1012.7661      3.9621171     -1008.8039     -1006.1687      1323.3987      3190.406       2.7927798    
      1630   1.63           240.22307     -1011.9659      3.1982807     -1008.7677     -1003.0602      1323.319       6910.1219      2.792948     
      1640   1.64           308.48614     -1012.8428      4.1071212     -1008.7357     -1011.8524      1323.2393     -3773.6451      2.7931161    
      1650   1.65           312.8946      -1012.8714      4.1658145     -1008.7056     -1006.0917      1323.1597      3165.0812      2.7932842    
      1660   1.66           268.74179     -1012.2495      3.5779731     -1008.6715     -999.79937      1323.08        10743.626      2.7934524    
      1670   1.67           307.22662     -1012.7344      4.0903523     -1008.644      -1008.3173      1323.0004      395.66669      2.7936206    
      1680   1.68           292.1469      -1012.5083      3.8895839     -1008.6187     -1004.2163      1322.9207      5331.7951      2.7937888    
      1690   1.69           287.93479     -1012.4286      3.8335048     -1008.5951     -1001.17        1322.8411      8993.0697      2.793957     
      1700   1.7            316.11297     -1012.7821      4.2086633     -1008.5734     -1005.6809      1322.7615      3503.5455      2.7941252    
      1710   1.71           305.47462     -1012.6203      4.0670265     -1008.5533     -1002.3617      1322.6818      7499.9602      2.7942934    
      1720   1.72           281.29631     -1012.2866      3.7451214     -1008.5415     -1002.8397      1322.6022      6907.0566      2.7944616    
      1730   1.73           276.98224     -1012.2126      3.6876847     -1008.5249     -1007.2753      1322.5226      1513.8187      2.7946299    
      1740   1.74           322.08185     -1012.7972      4.2881317     -1008.509      -1005.0696      1322.4429      4166.9956      2.7947982    
      1750   1.75           306.26224     -1012.5723      4.0775127     -1008.4948     -998.92258      1322.3633      11597.671      2.7949664    
      1760   1.76           288.81336     -1012.328       3.8452018     -1008.4828     -1000.0652      1322.2837      10199.375      2.7951347    
      1770   1.77           320.66424     -1012.7462      4.2692579     -1008.477      -1003.0606      1322.2041      6563.2506      2.795303     
      1780   1.78           308.13334     -1012.5746      4.1024241     -1008.4722     -1002.5666      1322.1245      7156.546       2.7954714    
      1790   1.79           275.4267      -1012.1359      3.6669747     -1008.4689     -1006.0943      1322.0449      2877.7453      2.7956397    
      1800   1.8            308.32971     -1012.5688      4.1050385     -1008.4638     -1006.8575      1321.9653      1946.7726      2.795808     
      1810   1.81           295.6454      -1012.3907      3.9361622     -1008.4545     -1001.2237      1321.8857      8764.0548      2.7959764    
      1820   1.82           318.22915     -1012.6895      4.2368376     -1008.4526     -1006.1108      1321.8061      2838.59        2.7961448    
      1830   1.83           320.24198     -1012.7161      4.2636361     -1008.4525     -1012.4563      1321.7265     -4853.3772      2.7963132    
      1840   1.84           270.17296     -1012.047       3.5970274     -1008.45       -1012.267       1321.6469     -4627.204       2.7964816    
      1850   1.85           333.03993     -1012.8871      4.4340253     -1008.4531     -1013.3072      1321.5673     -5884.747       2.79665      
      1860   1.86           282.06132     -1012.2077      3.7553066     -1008.4524     -1010.7327      1321.4877     -2764.6325      2.7968184    
      1870   1.87           280.09958     -1012.181       3.7291884     -1008.4518     -1008.1321      1321.4081      387.56505      2.7969868    
      1880   1.88           326.30291     -1012.7976      4.34433       -1008.4533     -1004.2807      1321.3285      5059.4571      2.7971553    
      1890   1.89           309.30509     -1012.5686      4.1180245     -1008.4506     -998.57671      1321.249       11973.319      2.7973238    
      1900   1.9            323.87611     -1012.7661      4.3120202     -1008.4541     -999.61404      1321.1694      10720.254      2.7974923    
      1910   1.91           286.68125     -1012.2829      3.8168154     -1008.4661     -1001.4892      1321.0898      8461.3915      2.7976608    
      1920   1.92           275.99615     -1012.1462      3.6745561     -1008.4716     -999.8508       1321.0102      10455.684      2.7978293    
      1930   1.93           295.57614     -1012.4108      3.9352401     -1008.4756     -1001.1115      1320.9307      8932.0978      2.7979978    
      1940   1.94           298.27636     -1012.4498      3.9711903     -1008.4787     -1000.9256      1320.8511      9161.7326      2.7981663    
      1950   1.95           313.82015     -1012.6563      4.1781372     -1008.4782     -996.92384      1320.7716      14016.091      2.7983349    
      1960   1.96           277.33919     -1012.1711      3.6924371     -1008.4786     -996.04087      1320.692       15088.66       2.7985034    
      1970   1.97           323.1173      -1012.7874      4.3019174     -1008.4855     -1004.5851      1320.6124      4731.9908      2.798672     
      1980   1.98           323.49078     -1012.7999      4.3068899     -1008.493      -1008.6207      1320.5329     -154.95607      2.7988406    
      1990   1.99           282.1072      -1012.2607      3.7559174     -1008.5048     -1011.0193      1320.4534     -3050.8918      2.7990092    
      2000   2              294.55376     -1012.4447      3.9216284     -1008.5231     -1009.4451      1320.3738     -1118.7574      2.7991778    
      2010   2.01           302.13791     -1012.5597      4.0226022     -1008.5371     -996.68155      1320.2943      14386.653      2.7993465    
      2020   2.02           304.55148     -1012.6144      4.0547359     -1008.5597     -995.69287      1320.2147      15614.806      2.7995151    
      2030   2.03           312.54927     -1012.7557      4.1612169     -1008.5945     -1007.636       1320.1352      1163.2107      2.7996838    
      2040   2.04           292.41418     -1012.5217      3.8931424     -1008.6285     -1006.5916      1320.0557      2472.174       2.7998524    
      2050   2.05           279.0937      -1012.3837      3.7157963     -1008.6679     -1003.8858      1319.9762      5804.4001      2.8000211    
      2060   2.06           301.9085      -1012.7335      4.0195478     -1008.7139     -1008.0713      1319.8966      780.0241       2.8001898    
      2070   2.07           284.37623     -1012.5425      3.7861269     -1008.7563     -1004.6669      1319.8171      4964.3666      2.8003585    
      2080   2.08           282.33809     -1012.5659      3.7589914     -1008.8069     -1004.0731      1319.7376      5746.9449      2.8005273    
      2090   2.09           262.587       -1012.3487      3.4960294     -1008.8527     -1005.8396      1319.6581      3658.0772      2.800696     
      2100   2.1            267.72121     -1012.4521      3.5643852     -1008.8877     -1005.6088      1319.5786      3981.1596      2.8008648    
      2110   2.11           281.47794     -1012.6668      3.7475396     -1008.9193     -1004.5027      1319.4991      5362.7855      2.8010335    
      2120   2.12           291.11502     -1012.8261      3.8758456     -1008.9502     -1009.633       1319.4196     -829.11767      2.8012023    
      2130   2.13           301.92304     -1012.9978      4.0197415     -1008.978      -1007.5984      1319.3401      1675.3464      2.8013711    
      2140   2.14           290.31787     -1012.8748      3.8652325     -1009.0096     -999.19771      1319.2606      11915.992      2.8015399    
      2150   2.15           283.12101     -1012.8076      3.769415      -1009.0382     -997.88972      1319.1811      13540.059      2.8017087    
      2160   2.16           292.43974     -1012.9544      3.8934827     -1009.0609     -1000.2968      1319.1016      10644.83       2.8018776    
      2170   2.17           310.39818     -1013.2195      4.1325777     -1009.0869     -1002.8439      1319.0221      7583.1474      2.8020464    
      2180   2.18           276.40179     -1012.792       3.6799568     -1009.1121     -1006.2013      1318.9426      3535.7801      2.8022153    
      2190   2.19           288.09596     -1012.9729      3.8356505     -1009.1373     -1007.1977      1318.8631      2356.2569      2.8023842    
      2200   2.2            287.88802     -1012.9904      3.8328821     -1009.1575     -1008.222       1318.7836      1136.5219      2.802553     
      2210   2.21           266.76143     -1012.7236      3.551607      -1009.172      -1010.4714      1318.7042     -1578.7664      2.8027219    
      2220   2.22           283.04368     -1012.9534      3.7683855     -1009.185      -1011.6138      1318.6247     -2951.1141      2.8028909    
      2230   2.23           230.80496     -1012.2598      3.0728899     -1009.1869     -1006.4729      1318.5452      3297.8422      2.8030598    
      2240   2.24           265.60539     -1012.7161      3.5362157     -1009.1799     -1006.844       1318.4658      2838.5597      2.8032287    
      2250   2.25           284.79547     -1012.9522      3.7917085     -1009.1605     -1005.5805      1318.3863      4350.5285      2.8033977    
      2260   2.26           265.59242     -1012.6685      3.536043      -1009.1325     -1004.0346      1318.3068      6195.6328      2.8035667    
      2270   2.27           299.00037     -1013.0779      3.9808296     -1009.0971     -1008.6126      1318.2274      588.80873      2.8037357    
      2280   2.28           261.49565     -1012.5339      3.4814994     -1009.0524     -1007.0744      1318.1479      2404.2051      2.8039047    
      2290   2.29           319.91803     -1013.2654      4.2593231     -1009.006      -999.5465       1318.0685      11498.532      2.8040737    
      2300   2.3            287.49847     -1012.7727      3.8276956     -1008.945      -997.90792      1317.989       13416.977      2.8042427    
      2310   2.31           271.4711      -1012.5035      3.6143106     -1008.8892     -999.69647      1317.9096      11175.525      2.8044117    
      2320   2.32           304.6546      -1012.883       4.0561089     -1008.8269     -1002.3272      1317.8301      7902.1428      2.8045808    
      2330   2.33           278.92039     -1012.4686      3.7134889     -1008.7551     -1006.4951      1317.7507      2747.8074      2.8047498    
      2340   2.34           313.09015     -1012.8508      4.1684181     -1008.6823     -1004.679       1317.6713      4867.7052      2.8049189    
      2350   2.35           295.83581     -1012.5452      3.9386974     -1008.6065     -996.09866      1317.5918      15209.361      2.805088     
      2360   2.36           299.406       -1012.52        3.9862301     -1008.5338     -999.90972      1317.5124      10487.409      2.8052571    
      2370   2.37           307.23383     -1012.5541      4.0904482     -1008.4637     -1009.7778      1317.433      -1598.1626      2.8054262    
      2380   2.38           271.98423     -1012.0207      3.6211423     -1008.3996     -1008.9271      1317.3536     -641.54908      2.8055954    
      2390   2.39           316.05409     -1012.5436      4.2078793     -1008.3357     -1006.6808      1317.2742      2012.8133      2.8057645    
      2400   2.4            311.30473     -1012.4202      4.1446473     -1008.2755     -1001.7175      1317.1947      7976.927       2.8059337    
      2410   2.41           304.05014     -1012.2681      4.0480611     -1008.22       -998.14429      1317.1153      12256.373      2.8061029    
      2420   2.42           286.97163     -1011.9934      3.8206814     -1008.1728     -1004.6315      1317.0359      4307.9211      2.8062721    
      2430   2.43           313.44001     -1012.3042      4.173076      -1008.1312     -1009.3794      1316.9565     -1518.5996      2.8064413    
      2440   2.44           332.75986     -1012.5202      4.4302966     -1008.09       -1002.8634      1316.8771      6358.8553      2.8066105    
      2450   2.45           334.94565     -1012.5223      4.4593977     -1008.0629     -997.38302      1316.7977      12994.423      2.8067797    
      2460   2.46           313.40416     -1012.2139      4.1725987     -1008.0413     -998.13013      1316.7183      12059.811      2.8069489    
      2470   2.47           278.86421     -1011.7396      3.7127409     -1008.0268     -995.64459      1316.6389      15067.573      2.8071182    
      2480   2.48           353.99153     -1012.7305      4.7129707     -1008.0175     -998.05577      1316.5595      12122.85       2.8072875    
      2490   2.49           324.65044     -1012.3392      4.3223294     -1008.0169     -1002.5156      1316.4802      6695.2004      2.8074568    
      2500   2.5            300.14665     -1012.0177      3.9960909     -1008.0216     -1003.553       1316.4008      5438.7614      2.807626     
      2510   2.51           325.98207     -1012.3674      4.3400584     -1008.0273     -1002.3821      1316.3214      6871.1635      2.8077954    
      2520   2.52           308.30687     -1012.1455      4.1047344     -1008.0408     -1006.2264      1316.242       2208.5262      2.8079647    
      2530   2.53           311.86129     -1012.2077      4.1520572     -1008.0557     -1001.2725      1316.1626      8257.1767      2.808134     
      2540   2.54           302.67599     -1012.1032      4.0297661     -1008.0734     -996.57193      1316.0833      14001.675      2.8083034    
      2550   2.55           309.00025     -1012.2082      4.113966      -1008.0942     -1003.4804      1316.0039      5617.0721      2.8084727    
      2560   2.56           333.30728     -1012.5533      4.4375848     -1008.1157     -1010.5717      1315.9245     -2990.2472      2.8086421    
      2570   2.57           332.31954     -1012.5728      4.4244343     -1008.1484     -1010.4089      1315.8452     -2752.4167      2.8088115    
      2580   2.58           330.26095     -1012.5846      4.3970266     -1008.1875     -1007.956       1315.7658      281.94322      2.8089809    
      2590   2.59           296.33816     -1012.1699      3.9453854     -1008.2245     -1000.7857      1315.6865      9058.638       2.8091503    
      2600   2.6            295.78212     -1012.2024      3.9379825     -1008.2644     -996.23423      1315.6071      14650.674      2.8093198    
      2610   2.61           278.79577     -1012.0095      3.7118297     -1008.2977     -997.79105      1315.5278      12796.001      2.8094892    
      2620   2.62           296.53298     -1012.2703      3.9479792     -1008.3223     -999.84991      1315.4484      10319.16       2.8096587    
      2630   2.63           318.41879     -1012.5901      4.2393625     -1008.3508     -999.08801      1315.3691      11282.435      2.8098282    
      2640   2.64           282.28026     -1012.1336      3.7582214     -1008.3754     -1001.8075      1315.2898      8000.4958      2.8099976    
      2650   2.65           298.6375      -1012.374       3.9759985     -1008.398      -1004.8188      1315.2104      4360.2349      2.8101671    
      2660   2.66           326.04861     -1012.7662      4.3409443     -1008.4253     -1004.9388      1315.1311      4247.476       2.8103367    
      2670   2.67           306.16063     -1012.5251      4.0761599     -1008.4489     -1001.8725      1315.0518      8012.3234      2.8105062    
      2680   2.68           340.35695     -1013.0097      4.5314426     -1008.4782     -1001.9205      1314.9724      7989.9737      2.8106757    
      2690   2.69           294.2197      -1012.4305      3.9171808     -1008.5133     -1003.561       1314.8931      6034.3233      2.8108453    
      2700   2.7            270.54798     -1012.1417      3.6020203     -1008.5397     -1006.7066      1314.8138      2233.7361      2.8110149    
      2710   2.71           312.13501     -1012.7205      4.1557016     -1008.5647     -1007.1117      1314.7345      1770.7549      2.8111844    
      2720   2.72           314.88441     -1012.7837      4.1923064     -1008.5914     -1003.2566      1314.6552      6501.5668      2.811354     
      2730   2.73           289.54418     -1012.4721      3.8549318     -1008.6172     -999.84003      1314.5759      10697.427      2.8115236    
      2740   2.74           275.31629     -1012.3028      3.6655046     -1008.6373     -1000.3711      1314.4966      10075.257      2.8116933    
      2750   2.75           319.42508     -1012.9081      4.25276       -1008.6553     -999.7624       1314.4172      10839.781      2.8118629    
      2760   2.76           285.78816     -1012.4706      3.8049249     -1008.6657     -993.82623      1314.3379      18089.279      2.8120326    
      2770   2.77           309.47002     -1012.7995      4.1202204     -1008.6793     -999.6701       1314.2587      10982.84       2.8122022    
      2780   2.78           316.15711     -1012.9031      4.2092509     -1008.6938     -1006.63        1314.1794      2516.182       2.8123719    
      2790   2.79           279.24021     -1012.4215      3.7177469     -1008.7037     -999.77043      1314.1001      10891.66       2.8125416    
      2800   2.8            303.14425     -1012.7501      4.0360004     -1008.7141     -999.52188      1314.0208      11208.003      2.8127113    
      2810   2.81           288.2871      -1012.5552      3.8381954     -1008.717      -1004.7135      1313.9415      4881.7233      2.812881     
      2820   2.82           270.8524      -1012.3219      3.6060733     -1008.7158     -1002.4935      1313.8622      7587.7564      2.8130508    
      2830   2.83           276.25538     -1012.389       3.6780075     -1008.711      -1004.1687      1313.7829      5539.4314      2.8132205    
      2840   2.84           286.47501     -1012.5164      3.8140695     -1008.7024     -1011.0672      1313.7037     -2884.1645      2.8133903    
      2850   2.85           291.27896     -1012.57        3.8780283     -1008.6919     -1006.2429      1313.6244      2986.9392      2.81356      
      2860   2.86           285.08192     -1012.4757      3.7955222     -1008.6802     -1000.9815      1313.5451      9390.3955      2.8137298    
      2870   2.87           306.96509     -1012.7529      4.0868703     -1008.666      -1004.5475      1313.4659      5023.8651      2.8138996    
      2880   2.88           302.32869     -1012.6794      4.0251422     -1008.6542     -997.21214      1313.3866      13958.001      2.8140694    
      2890   2.89           257.83463     -1012.0749      3.4327574     -1008.6422     -994.53972      1313.3073      17204.343      2.8142393    
      2900   2.9            270.17251     -1012.2234      3.5970214     -1008.6264     -1007.3726      1313.2281      1529.6284      2.8144091    
      2910   2.91           299.43517     -1012.5913      3.9866185     -1008.6047     -1004.1855      1313.1488      5391.9689      2.814579     
      2920   2.92           299.53934     -1012.5691      3.9880053     -1008.5811     -995.98717      1313.0696      15366.76       2.8147488    
      2930   2.93           320.74393     -1012.8297      4.270319      -1008.5594     -999.22656      1312.9903      11388.355      2.8149187    
      2940   2.94           320.05354     -1012.8023      4.2611272     -1008.5411     -993.61907      1312.9111      18209.748      2.8150886    
      2950   2.95           290.56063     -1012.3951      3.8684647     -1008.5266     -990.89183      1312.8319      21521.454      2.8152585    
      2960   2.96           324.69814     -1012.8393      4.3229644     -1008.5164     -1004.8482      1312.7526      4476.9123      2.8154285    
      2970   2.97           334.66161     -1012.9653      4.455616      -1008.5096     -1002.8205      1312.6734      6943.8317      2.8155984    
      2980   2.98           327.5142      -1012.8723      4.3604569     -1008.5119     -994.21839      1312.5942      17446.917      2.8157684    
      2990   2.99           290.19674     -1012.3871      3.8636199     -1008.5235     -1004.837       1312.5149      4500.1185      2.8159383    
      3000   3              295.23132     -1012.4651      3.9306493     -1008.5345     -1007.8143      1312.4357      879.202        2.8161083    
      3010   3.01           280.88196     -1012.2804      3.7396048     -1008.5408     -1001.2638      1312.3565      8883.9901      2.8162783    
      3020   3.02           275.45371     -1012.2092      3.6673343     -1008.5419     -1002.9472      1312.2773      6830.6744      2.8164483    
      3030   3.03           328.78806     -1012.9197      4.3774167     -1008.5423     -998.6576       1312.1981      12069.041      2.8166183    
      3040   3.04           298.80276     -1012.5233      3.9781987     -1008.5451     -990.15107      1312.1189      22460.198      2.8167884    
      3050   3.05           274.90684     -1012.2089      3.6600533     -1008.5488     -994.7363       1312.0396      16866.969      2.8169584    
      3060   3.06           291.12352     -1012.4256      3.8759588     -1008.5496     -997.2117       1311.9604      13845.979      2.8171285    
      3070   3.07           278.84553     -1012.2563      3.7124922     -1008.5438     -993.24319      1311.8812      18686.369      2.8172985    
      3080   3.08           298.06348     -1012.505       3.9683561     -1008.5366     -998.99173      1311.802       11657.707      2.8174686    
      3090   3.09           312.5273      -1012.6879      4.1609244     -1008.527      -999.24493      1311.7229      11337.413      2.8176387    
      3100   3.1            301.6848      -1012.532       4.0165696     -1008.5154     -989.44803      1311.6437      23290.878      2.8178088    
      3110   3.11           304.17455     -1012.557       4.0497176     -1008.5073     -989.99214      1311.5645      22617.703      2.817979     
      3120   3.12           286.18812     -1012.3055      3.81025       -1008.4952     -995.46872      1311.4853      15913.845      2.8181491    
      3130   3.13           292.36168     -1012.3744      3.8924435     -1008.4819     -999.05112      1311.4061      11521.847      2.8183193    
      3140   3.14           312.74758     -1012.6277      4.1638572     -1008.4638     -1004.9064      1311.3269      4346.3731      2.8184894    
      3150   3.15           293.91435     -1012.3496      3.9131153     -1008.4365     -1005.148       1311.2478      4018.1354      2.8186596    
      3160   3.16           365.59359     -1013.2815      4.8674381     -1008.414      -997.08882      1311.1686      13838.809      2.8188298    
      3170   3.17           327.7988      -1012.7597      4.3642461     -1008.3955     -994.85517      1311.0894      16546.498      2.819        
      3180   3.18           285.67344     -1012.1883      3.8033976     -1008.3849     -999.85834      1311.0102      10420.249      2.8191703    
      3190   3.19           317.35623     -1012.6042      4.2252158     -1008.379      -1001.7966      1310.9311      8044.812       2.8193405    
      3200   3.2            281.41559     -1012.1103      3.7467095     -1008.3636     -998.81323      1310.8519      11672.803      2.8195108    
      3210   3.21           304.74569     -1012.4093      4.0573217     -1008.3519     -1006.7064      1310.7728      2011.3239      2.819681     
      3220   3.22           311.65297     -1012.4887      4.1492838     -1008.3394     -1008.1271      1310.6936      259.45202      2.8198513    
      3230   3.23           277.27266     -1012.0135      3.6915514     -1008.322      -1002.6833      1310.6145      6893.0172      2.8200216    
      3240   3.24           300.86109     -1012.3142      4.0056028     -1008.3086     -1000.4112      1310.5353      9654.8559      2.8201919    
      3250   3.25           275.94716     -1011.9582      3.6739039     -1008.2843     -991.37595      1310.4562      20672.293      2.8203622    
      3260   3.26           342.27934     -1012.8103      4.5570369     -1008.2533     -992.28565      1310.377       19523.389      2.8205326    
      3270   3.27           346.15749     -1012.8344      4.6086699     -1008.2257     -1001.6513      1310.2979      8038.9168      2.8207029    
      3280   3.28           325.97042     -1012.5518      4.3399033     -1008.2119     -1004.5961      1310.2188      4421.5162      2.8208733    
      3290   3.29           329.31638     -1012.5936      4.3844507     -1008.2091     -1002.0492      1310.1396      7532.9697      2.8210437    
      3300   3.3            290.52354     -1012.0775      3.8679708     -1008.2095     -998.89537      1310.0605      11391.02       2.8212141    
      3310   3.31           305.32999     -1012.2766      4.0651008     -1008.2115     -997.65807      1309.9814      12907.365      2.8213845    
      3320   3.32           278.51021     -1011.917       3.7080278     -1008.209      -996.7044       1309.9023      14071.537      2.8215549    
      3330   3.33           309.37275     -1012.3266      4.1189254     -1008.2077     -1003.0638      1309.8231      6291.9973      2.8217253    
      3340   3.34           349.6744      -1012.864       4.6554933     -1008.2085     -1006.132       1309.744       2540.1834      2.8218958    
      3350   3.35           318.68908     -1012.4606      4.2429611     -1008.2176     -999.84009      1309.6649      10248.678      2.8220662    
      3360   3.36           326.19347     -1012.5836      4.342873      -1008.2408     -999.33144      1309.5858      10899.871      2.8222367    
      3370   3.37           317.55674     -1012.4941      4.2278854     -1008.2662     -1001.0714      1309.5067      8802.8538      2.8224072    
      3380   3.38           294.39285     -1012.2201      3.9194861     -1008.3006     -995.35327      1309.4276      15841.997      2.8225777    
      3390   3.39           289.26534     -1012.1874      3.8512194     -1008.3361     -997.63078      1309.3485      13099.55       2.8227482    
      3400   3.4            275.64127     -1012.0373      3.6698313     -1008.3675     -1000.4586      1309.2694      9678.2756      2.8229187    
      3410   3.41           305.7986      -1012.4725      4.0713399     -1008.4012     -1000.6155      1309.1903      9528.0636      2.8230893    
      3420   3.42           316.69905     -1012.6532      4.2164662     -1008.4367     -1002.9843      1309.1112      6673.09        2.8232598    
      3430   3.43           288.09892     -1012.3148      3.83569       -1008.4791     -1004.562       1309.0321      4794.2896      2.8234304    
      3440   3.44           290.68023     -1012.3922      3.870057      -1008.5222     -1000.2989      1308.9531      10065.343      2.823601     
      3450   3.45           320.06498     -1012.8281      4.2612795     -1008.5668     -1003.4229      1308.874       6296.626       2.8237716    
      3460   3.46           279.63453     -1012.3386      3.7229967     -1008.6156     -1006.4233      1308.7949      2683.7315      2.8239422    
      3470   3.47           326.373       -1013.0183      4.3452631     -1008.6731     -1003.4604      1308.7158      6381.5875      2.8241128    
      3480   3.48           283.13607     -1012.4914      3.7696156     -1008.7217     -999.91475      1308.6368      10782.479      2.8242834    
      3490   3.49           270.48049     -1012.3739      3.6011217     -1008.7728     -1007.139       1308.5577      2000.4357      2.8244541    
      3500   3.5            320.95724     -1013.1008      4.2731589     -1008.8276     -1004.0491      1308.4786      5851.0766      2.8246247    
      3510   3.51           259.91641     -1012.3333      3.4604738     -1008.8728     -997.11947      1308.3996      14392.31       2.8247954    
      3520   3.52           280.55342     -1012.6539      3.7352306     -1008.9187     -1003.2182      1308.3205      6980.8906      2.8249661    
      3530   3.53           296.88845     -1012.9114      3.9527119     -1008.9587     -996.93147      1308.2415      14729.456      2.8251368    
      3540   3.54           294.40821     -1012.9187      3.9196906     -1008.999      -988.56401      1308.1624      25027.848      2.8253075    
      3550   3.55           289.77824     -1012.9021      3.8580481     -1009.044      -993.86556      1308.0834      18590.991      2.8254783    
      3560   3.56           256.502       -1012.4922      3.4150151     -1009.0772     -992.09157      1308.0043      20805.699      2.825649     
      3570   3.57           290.28361     -1012.9722      3.8647765     -1009.1074     -995.12314      1307.9253      17130.433      2.8258198    
      3580   3.58           278.09596     -1012.8382      3.7025126     -1009.1357     -1009.6117      1307.8462     -583.13008      2.8259906    
      3590   3.59           253.33673     -1012.5269      3.3728732     -1009.154      -1007.7653      1307.7672      1701.3649      2.8261614    
      3600   3.6            295.94102     -1013.1102      3.9400981     -1009.1701     -998.18809      1307.6882      13455.168      2.8263322    
      3610   3.61           271.13727     -1012.7925      3.609866      -1009.1826     -1002.5812      1307.6091      8088.5578      2.826503     
      3620   3.62           283.63736     -1012.9666      3.7762897     -1009.1903     -1006.1023      1307.5301      3783.8374      2.8266738    
      3630   3.63           263.5534      -1012.6989      3.508896      -1009.19       -1005.075       1307.4511      5042.5541      2.8268446    
      3640   3.64           263.85219     -1012.6968      3.5128739     -1009.1839     -1011.3508      1307.3721     -2655.5144      2.8270155    
      3650   3.65           286.98101     -1012.9899      3.8208063     -1009.1691     -1006.6551      1307.2931      3081.1724      2.8271864    
      3660   3.66           261.59969     -1012.6271      3.4828847     -1009.1442     -992.23102      1307.214       20729.561      2.8273573    
      3670   3.67           271.11091     -1012.7178      3.609515      -1009.1083     -991.41107      1307.135       21691.789      2.8275282    
      3680   3.68           280.24585     -1012.7865      3.7311358     -1009.0554     -993.59243      1307.056       18954.311      2.8276991    
      3690   3.69           287.26339     -1012.8112      3.8245658     -1008.9866     -990.15946      1306.977       23079.512      2.82787      
      3700   3.7            298.02886     -1012.8675      3.9678951     -1008.8996     -993.18168      1306.898       19269.154      2.8280409    
      3710   3.71           313.10314     -1012.9649      4.1685911     -1008.7963     -998.57393      1306.819       12532.734      2.8282119    
      3720   3.72           325.56039     -1013.0201      4.3344443     -1008.6857     -999.37134      1306.74        11420.201      2.8283829    
      3730   3.73           279.85554     -1012.3101      3.7259392     -1008.5842     -1003.3247      1306.661       6449.0024      2.8285538    
      3740   3.74           279.65487     -1012.2057      3.7232676     -1008.4824     -1003.9537      1306.5821      5553.1796      2.8287248    
      3750   3.75           306.02432     -1012.4567      4.0743451     -1008.3824     -1002.7834      1306.5031      6866.0598      2.8288959    
      3760   3.76           286.44082     -1012.0987      3.8136144     -1008.2851     -1004.6486      1306.4241      4459.7873      2.8290669    
      3770   3.77           305.78603     -1012.2716      4.0711725     -1008.2005     -1006.2092      1306.3451      2442.2348      2.8292379    
      3780   3.78           330.49181     -1012.5267      4.4001002     -1008.1266     -1006.0379      1306.2661      2561.8148      2.829409     
      3790   3.79           328.14549     -1012.429       4.3688617     -1008.0601     -1007.1444      1306.1872      1123.198       2.82958      
      3800   3.8            343.29257     -1012.5904      4.5705268     -1008.0199     -1005.3739      1306.1082      3245.7509      2.8297511    
      3810   3.81           328.61886     -1012.3698      4.3751641     -1007.9947     -998.90723      1306.0292      11148.049      2.8299222    
      3820   3.82           312.35668     -1012.1346      4.1586528     -1007.9759     -992.93039      1305.9503      18458.288      2.8300933    
      3830   3.83           335.48879     -1012.4345      4.466629      -1007.9679     -994.82168      1305.8713      16129.081      2.8302644    
      3840   3.84           311.68103     -1012.1178      4.1496573     -1007.9681     -998.3575       1305.7924      11792.036      2.8304356    
      3850   3.85           305.42638     -1012.0362      4.0663841     -1007.9698     -997.05374      1305.7134      13394.528      2.8306067    
      3860   3.86           312.58697     -1012.1385      4.1617188     -1007.9768     -998.55521      1305.6345      11561.463      2.8307779    
      3870   3.87           306.5643      -1012.0659      4.0815342     -1007.9844     -994.69224      1305.5555      16312.077      2.830949     
      3880   3.88           301.34535     -1012.0009      4.0120502     -1007.9889     -990.74919      1305.4766      21157.839      2.8311202    
      3890   3.89           310.69866     -1012.1351      4.1365782     -1007.9985     -997.15944      1305.3976      13303.276      2.8312914    
      3900   3.9            313.32164     -1012.1824      4.1715        -1008.0109     -996.29417      1305.3187      14381.425      2.8314627    
      3910   3.91           290.54687     -1011.891       3.8682814     -1008.0228     -988.36436      1305.2398      24130.619      2.8316339    
      3920   3.92           304.26603     -1012.0891      4.0509355     -1008.0382     -993.94696      1305.1608      17297.996      2.8318051    
      3930   3.93           303.10377     -1012.0828      4.0354614     -1008.0474     -1000.2528      1305.0819      9568.9131      2.8319764    
      3940   3.94           321.7811      -1012.3477      4.2841276     -1008.0635     -1000.806       1305.003       8910.2787      2.8321477    
      3950   3.95           294.66111     -1012.0099      3.9230576     -1008.0868     -1008.7671      1304.9241     -835.27691      2.8323189    
      3960   3.96           314.27248     -1012.2951      4.1841593     -1008.1109     -1011.6787      1304.8451     -4380.8249      2.8324902    
      3970   3.97           344.52036     -1012.7293      4.5868734     -1008.1424     -998.70162      1304.7662      11592.766      2.8326616    
      3980   3.98           357.12613     -1012.9479      4.7547041     -1008.1932     -996.16801      1304.6873      14767.136      2.8328329    
      3990   3.99           326.08975     -1012.5978      4.3414921     -1008.2563     -1001.3883      1304.6084      8434.522       2.8330042    
      4000   4              284.6918      -1012.1139      3.7903282     -1008.3235     -995.50269      1304.5295      15746.098      2.8331756    
      4010   4.01           325.42454     -1012.7286      4.3326356     -1008.3959     -998.10289      1304.4506      12642.33       2.8333469    
      4020   4.02           302.70574     -1012.5012      4.0301622     -1008.471      -999.01983      1304.3717      11609.042      2.8335183    
      4030   4.03           304.69444     -1012.6087      4.0566392     -1008.552      -993.07517      1304.2928      19011.567      2.8336897    
      4040   4.04           312.24149     -1012.7869      4.1571191     -1008.6298     -997.52018      1304.2139      13647.731      2.8338611    
      4050   4.05           271.63529     -1012.321       3.6164966     -1008.7045     -1000.4311      1304.135       10164.247      2.8340326    
      4060   4.06           290.69296     -1012.6428      3.8702264     -1008.7725     -990.5464       1304.0561      22392.794      2.834204     
      4070   4.07           277.71596     -1012.5238      3.6974533     -1008.8264     -986.20704      1303.9773      27792.022      2.8343754    
      4080   4.08           274.42768     -1012.5268      3.6536738     -1008.8732     -996.93693      1303.8984      14666.753      2.8345469    
      4090   4.09           302.24763     -1012.9396      4.0240629     -1008.9155     -1000.3665      1303.8195      10505.3        2.8347184    
      4100   4.1            266.31535     -1012.4926      3.5456679     -1008.9469     -1003.2469      1303.7406      7004.7758      2.8348899    
      4110   4.11           261.29304     -1012.4488      3.478802      -1008.97       -1009.3358      1303.6618     -449.52973      2.8350614    
      4120   4.12           291.62922     -1012.8661      3.8826916     -1008.9834     -999.51685      1303.5829      11634.982      2.8352329    
      4130   4.13           302.3996      -1013.0195      4.0260863     -1008.9934     -994.9418       1303.504       17271.309      2.8354044    
      4140   4.14           274.79011     -1012.6589      3.6584992     -1009.0004     -1004.606       1303.4252      5401.5836      2.835576     
      4150   4.15           287.09351     -1012.8242      3.8223041     -1009.0019     -1002.0979      1303.3463      8486.9026      2.8357476    
      4160   4.16           292.76031     -1012.898       3.8977508     -1009.0002     -998.34764      1303.2675      13095.81       2.8359191    
      4170   4.17           277.08787     -1012.6843      3.6890911     -1008.9952     -1002.9132      1303.1886      7477.3305      2.8360907    
      4180   4.18           297.27685     -1012.9465      3.9578831     -1008.9887     -999.41686      1303.1098      11768.536      2.8362623    
      4190   4.19           260.56949     -1012.4487      3.4691687     -1008.9795     -990.8194       1303.0309      22329.239      2.8364339    
      4200   4.2            274.99789     -1012.6271      3.6612655     -1008.9659     -996.75565      1302.9521      15014.313      2.8366056    
      4210   4.21           277.79351     -1012.6441      3.6984858     -1008.9456     -1000.3919      1302.8732      10518.793      2.8367772    
      4220   4.22           260.68144     -1012.3929      3.4706593     -1008.9223     -995.69001      1302.7944      16273.02       2.8369489    
      4230   4.23           313.22982     -1013.0656      4.1702776     -1008.8954     -997.6728       1302.7156      13802.342      2.8371205    
      4240   4.24           312.36525     -1013.0271      4.1587668     -1008.8683     -995.79328      1302.6367      16081.606      2.8372922    
      4250   4.25           279.25325     -1012.5645      3.7179205     -1008.8466     -988.26568      1302.5579      25314.958      2.8374639    
      4260   4.26           281.98223     -1012.58        3.7542536     -1008.8258     -991.54158      1302.4791      21261.231      2.8376356    
      4270   4.27           285.34173     -1012.6026      3.7989813     -1008.8036     -998.96494      1302.4003      12103.245      2.8378074    
      4280   4.28           301.62768     -1012.7943      4.0158091     -1008.7785     -997.34082      1302.3215      14071.188      2.8379791    
      4290   4.29           305.16747     -1012.8166      4.0629372     -1008.7536     -998.15175      1302.2426      13043.738      2.8381509    
      4300   4.3            311.79012     -1012.8873      4.1511097     -1008.7362     -1004.1999      1302.1638      5581.4029      2.8383226    
      4310   4.31           269.37397     -1012.3057      3.5863898     -1008.7193     -999.6149       1302.085       11202.667      2.8384944    
      4320   4.32           258.19932     -1012.1381      3.4376128     -1008.7005     -994.0284       1302.0062      18054.634      2.8386662    
      4330   4.33           276.5644      -1012.3566      3.6821217     -1008.6745     -997.53966      1301.9274      13702.78       2.838838     
      4340   4.34           299.97928     -1012.6352      3.9938626     -1008.6413     -999.61374      1301.8486      11110.168      2.8390099    
      4350   4.35           315.56099     -1012.8164      4.2013144     -1008.6151     -1001.6042      1301.7698      8628.8001      2.8391817    
      4360   4.36           298.73889     -1012.5642      3.9773483     -1008.5868     -999.55585      1301.6911      11115.721      2.8393536    
      4370   4.37           304.25657     -1012.6125      4.0508096     -1008.5617     -993.56578      1301.6123      18458.676      2.8395254    
      4380   4.38           311.82495     -1012.6975      4.1515735     -1008.5459     -988.92856      1301.5335      24148.832      2.8396973    
      4390   4.39           273.89248     -1012.1707      3.6465484     -1008.5241     -991.56115      1301.4547      20882.562      2.8398692    
      4400   4.4            272.61048     -1012.1322      3.6294801     -1008.5027     -994.49811      1301.3759      17241.652      2.8400411    
      4410   4.41           320.09252     -1012.7416      4.2616461     -1008.4799     -989.38227      1301.2971      23513.308      2.840213     
      4420   4.42           289.16233     -1012.2986      3.849848      -1008.4488     -980.64567      1301.2184      34233.699      2.840385     
      4430   4.43           305.49278     -1012.494       4.0672683     -1008.4267     -986.90231      1301.1396      26504.339      2.8405569    
      4440   4.44           307.75144     -1012.5039      4.0973396     -1008.4065     -992.98072      1301.0608      18995.932      2.8407289    
      4450   4.45           290.58876     -1012.2549      3.8688391     -1008.3861     -992.02899      1300.9821      20143.945      2.8409009    
      4460   4.46           320.82875     -1012.6389      4.2714482     -1008.3675     -997.11048      1300.9033      13863.975      2.8410728    
      4470   4.47           297.61173     -1012.3139      3.9623416     -1008.3516     -1001.2294      1300.8246      8772.1467      2.8412448    
      4480   4.48           324.5069      -1012.659       4.3204184     -1008.3386     -1003.296       1300.7458      6211.1358      2.8414169    
      4490   4.49           304.79129     -1012.3855      4.0579288     -1008.3276     -1007.6039      1300.6671      891.4261       2.8415889    
      4500   4.5            277.78546     -1012.02        3.6983787     -1008.3216     -1006.1853      1300.5883      2631.7422      2.8417609    
      4510   4.51           312.11965     -1012.4667      4.155497      -1008.3112     -997.47317      1300.5096      13352.018      2.841933     
      4520   4.52           307.60384     -1012.3927      4.0953745     -1008.2973     -996.40606      1300.4308      14650.429      2.8421051    
      4530   4.53           326.3673      -1012.6369      4.3451873     -1008.2918     -1002.7692      1300.3521      6804.3533      2.8422772    
      4540   4.54           309.93542     -1012.4123      4.1264166     -1008.2859     -998.85674      1300.2734      11618.477      2.8424493    
      4550   4.55           296.06252     -1012.2273      3.9417157     -1008.2856     -995.14069      1300.1946      16197.89       2.8426214    
      4560   4.56           296.14519     -1012.2288      3.9428163     -1008.286      -993.21479      1300.1159      18572.769      2.8427935    
      4570   4.57           299.22776     -1012.2659      3.983857      -1008.2821     -986.80467      1300.0372      26468.93       2.8429657    
      4580   4.58           333.47397     -1012.7249      4.439804      -1008.2851     -990.24799      1299.9585      22230.464      2.8431378    
      4590   4.59           312.66972     -1012.4543      4.1628206     -1008.2915     -994.78774      1299.8798      16644.174      2.84331      
      4600   4.6            298.54222     -1012.2758      3.9747299     -1008.3011     -993.79987      1299.801       17874.669      2.8434822    
      4610   4.61           310.53301     -1012.4577      4.1343728     -1008.3233     -1001.2025      1299.7223      8777.9124      2.8436544    
      4620   4.62           295.50896     -1012.2825      3.9343457     -1008.3481     -1001.0488      1299.6436      8998.411       2.8438266    
      4630   4.63           295.59714     -1012.3213      3.9355197     -1008.3858     -992.67848      1299.5649      19364.887      2.8439988    
      4640   4.64           329.41522     -1012.8221      4.3857667     -1008.4363     -994.76349      1299.4862      16857.625      2.8441711    
      4650   4.65           288.53999     -1012.3388      3.8415622     -1008.4972     -994.41751      1299.4075      17360.325      2.8443433    
      4660   4.66           273.53996     -1012.21        3.6418549     -1008.5681     -988.86029      1299.3288      24301.346      2.8445156    
      4670   4.67           307.116       -1012.7274      4.0888795     -1008.6385     -988.98866      1299.2501      24231.258      2.8446879    
      4680   4.68           277.11012     -1012.4014      3.6893873     -1008.712      -988.67278      1299.1714      24713.001      2.8448602    
      4690   4.69           322.8394      -1013.0911      4.2982175     -1008.7929     -991.81794      1299.0928      20935.282      2.8450325    
      4700   4.7            281.71806     -1012.6241      3.7507365     -1008.8734     -995.93495      1299.0141      15958.021      2.8452048    
      4710   4.71           279.20814     -1012.6663      3.71732       -1008.949      -999.98253      1298.9354      11059.68       2.8453772    
      4720   4.72           278.1908      -1012.7199      3.7037752     -1009.0161     -995.4848       1298.8567      16691.223      2.8455495    
      4730   4.73           235.26865     -1012.1994      3.1323185     -1009.0671     -990.88653      1298.7781      22427.562      2.8457219    
      4740   4.74           280.93421     -1012.8469      3.7403005     -1009.1066     -995.53923      1298.6994      16737.802      2.8458943    
      4750   4.75           274.43368     -1012.7927      3.6537537     -1009.139      -996.13493      1298.6207      16043.76       2.8460666    
      4760   4.76           270.6941      -1012.7706      3.6039658     -1009.1666     -996.94177      1298.5421      15083.312      2.8462391    
      4770   4.77           271.49939     -1012.8025      3.6146873     -1009.1878     -1001.9672      1298.4634      8909.5188      2.8464115    
      4780   4.78           261.47471     -1012.6797      3.4812207     -1009.1985     -999.73916      1298.3847      11672.644      2.8465839    
      4790   4.79           274.32745     -1012.8552      3.6523394     -1009.2029     -996.07171      1298.3061      16204.581      2.8467564    
      4800   4.8            283.54827     -1012.9759      3.7751035     -1009.2008     -998.29287      1298.2274      13461.741      2.8469288    
      4810   4.81           279.47465     -1012.9137      3.7208681     -1009.1928     -998.88565      1298.1488      12721.134      2.8471013    
      4820   4.82           282.21021     -1012.9405      3.7572888     -1009.1832     -997.63872      1298.0701      14249.098      2.8472738    
      4830   4.83           258.56414     -1012.6068      3.4424699     -1009.1644     -1002.7116      1297.9915      7964.9528      2.8474463    
      4840   4.84           296.51519     -1013.0859      3.9477424     -1009.1381     -1003.4824      1297.9129      6981.588       2.8476188    
      4850   4.85           290.82734     -1012.9806      3.8720156     -1009.1085     -992.99512      1297.8342      19892.032      2.8477914    
      4860   4.86           269.42429     -1012.6578      3.5870597     -1009.0708     -989.24568      1297.7556      24475.553      2.8479639    
      4870   4.87           323.6504      -1013.3393      4.3090151     -1009.0303     -992.16916      1297.677       20817.552      2.8481365    
      4880   4.88           324.41128     -1013.3063      4.3191452     -1008.9872     -988.81069      1297.5983      24912.426      2.848309     
      4890   4.89           273.54246     -1012.5867      3.6418883     -1008.9448     -990.60431      1297.5197      22646.81       2.8484816    
      4900   4.9            273.80927     -1012.5521      3.6454405     -1008.9066     -996.48338      1297.4411      15341.149      2.8486542    
      4910   4.91           270.75974     -1012.4632      3.6048397     -1008.8584     -994.06174      1297.3625      18273.093      2.8488269    
      4920   4.92           272.49684     -1012.4285      3.6279671     -1008.8005     -998.66378      1297.2839      12519.073      2.8489995    
      4930   4.93           280.2494      -1012.4667      3.731183      -1008.7355     -1004.7819      1297.2053      4883.1954      2.8491721    
      4940   4.94           295.14802     -1012.5914      3.9295402     -1008.6619     -999.69202      1297.1267      11079.356      2.8493448    
      4950   4.95           300.16944     -1012.5796      3.9963944     -1008.5832     -994.94302      1297.0481      16849.003      2.8495175    
      4960   4.96           305.01507     -1012.5661      4.060908      -1008.5052     -1000.2524      1296.9695      10194.817      2.8496902    
      4970   4.97           299.72277     -1012.4261      3.9904475     -1008.4357     -996.96953      1296.8909      14165.258      2.8498629    
      4980   4.98           292.69089     -1012.2655      3.8968264     -1008.3686     -987.7794       1296.8123      25437.441      2.8500356    
      4990   4.99           301.01338     -1012.3115      4.0076304     -1008.3038     -992.25575      1296.7337      19828.164      2.8502083    
      5000   5              279.29356     -1011.9635      3.7184572     -1008.2451     -995.82834      1296.6551      15342.374      2.850381     
Loop time of 16.097 on 1 procs for 5000 steps with 104 atoms

Performance: 26.837 ns/day, 0.894 hours/ns, 310.616 timesteps/s, 32.304 katom-step/s
96.4% CPU use with 1 MPI tasks x 1 OpenMP threads

MPI task timing breakdown:
Section |  min time  |  avg time  |  max time  |%varavg| %total
---------------------------------------------------------------
Pair    | 9.2411     | 9.2411     | 9.2411     |   0.0 | 57.41
Kspace  | 1.2675     | 1.2675     | 1.2675     |   0.0 |  7.87
Neigh   | 0.11745    | 0.11745    | 0.11745    |   0.0 |  0.73
Comm    | 0.10879    | 0.10879    | 0.10879    |   0.0 |  0.68
Output  | 0.4912     | 0.4912     | 0.4912     |   0.0 |  3.05
Modify  | 4.8539     | 4.8539     | 4.8539     |   0.0 | 30.15
Other   |            | 0.01714    |            |       |  0.11

Nlocal:            104 ave         104 max         104 min
Histogram: 1 0 0 0 0 0 0 0 0 0
Nghost:           4279 ave        4279 max        4279 min
Histogram: 1 0 0 0 0 0 0 0 0 0
Neighs:          38376 ave       38376 max       38376 min
Histogram: 1 0 0 0 0 0 0 0 0 0

Total # of neighbors = 38376
Ave neighs/atom = 369
Neighbor list builds = 45
Dangerous builds = 0

# ============================================================
# STEP 5: Cleanup / final state
# ============================================================

unfix compression
unfix thermostat

undump trajectory

write_data final_${runid}.data
write_data final_test001.data
System init for write_data ...
PPPM initialization ...
  using 12-bit tables for long-range coulomb
  G vector (1/distance) = 0.28229951
  grid = 10 15 20
  stencil order = 5
  estimated absolute RMS force accuracy = 4.6515419e-05
  estimated relative force accuracy = 3.2303171e-06
  using double precision FFTW3
  3d grid and FFT values/proc = 10098 3000
Generated 0 of 10 mixed pair_coeff terms from geometric mixing rule
WARNING: Not all mixed pair coeffs generated from mixing. Use write_data with 'pair ij' option to store all pair coeffs. (src/write_data.cpp:376)
write_restart restart_${runid}.restart
write_restart restart_test001.restart
System init for write_restart ...
PPPM initialization ...
  using 12-bit tables for long-range coulomb
  G vector (1/distance) = 0.28229951
  grid = 10 15 20
  stencil order = 5
  estimated absolute RMS force accuracy = 4.6515419e-05
  estimated relative force accuracy = 3.2303171e-06
  using double precision FFTW3
  3d grid and FFT values/proc = 10098 3000
Generated 0 of 10 mixed pair_coeff terms from geometric mixing rule

print "============================================================"
============================================================
print "ANORTHITE PRODUCTION TRAJECTORY COMPLETE"
ANORTHITE PRODUCTION TRAJECTORY COMPLETE
print "============================================================"
============================================================
print "Run ID: ${runid}"
Run ID: test001
print "Thermal seed: ${seed}"
Thermal seed: 10001
print "Final cell scales: ${sx} ${sy} ${sz}"
Final cell scales: 0.99 0.99 0.99
print "Trajectory: traj_${runid}.lammpstrj"
Trajectory: traj_test001.lammpstrj
print "Final structure: final_${runid}.data"
Final structure: final_test001.data
print "Restart: restart_${runid}.restart"
Restart: restart_test001.restart
print "============================================================"
============================================================
Total wall time: 0:00:30
